1000 1000
730 269 463 642 453 455 506 560 483 693 381 456 457 707 639 691 434 576 728 545
300 717 369 464 329 667 482 362 260 345 510 586 453 658 650 359 700 291 739 742
219000 192873 170847 297888 149037 303485 243892 202720 125580 239085 194310 267216 207021 465206 415350 248069 303800 167616 537992 404390